p cnf 625 2420
1 2 3 4 5 0
6 7 8 9 10 0
11 12 13 14 15 0
16 17 18 19 20 0
21 22 23 24 25 0
26 27 28 29 30 0
31 32 33 34 35 0
36 37 38 39 40 0
41 42 43 44 45 0
46 47 48 49 50 0
51 52 53 54 55 0
56 57 58 59 60 0
61 62 63 64 65 0
66 67 68 69 70 0
71 72 73 74 75 0
76 77 78 79 80 0
81 82 83 84 85 0
86 87 88 89 90 0
91 92 93 94 95 0
96 97 98 99 100 0
101 102 103 104 105 0
106 107 108 109 110 0
111 112 113 114 115 0
116 117 118 119 120 0
121 122 123 124 125 0
126 127 128 129 130 0
131 132 133 134 135 0
136 137 138 139 140 0
141 142 143 144 145 0
146 147 148 149 150 0
151 152 153 154 155 0
156 157 158 159 160 0
161 162 163 164 165 0
166 167 168 169 170 0
171 172 173 174 175 0
176 177 178 179 180 0
181 182 183 184 185 0
186 187 188 189 190 0
191 192 193 194 195 0
196 197 198 199 200 0
201 202 203 204 205 0
206 207 208 209 210 0
211 212 213 214 215 0
216 217 218 219 220 0
221 222 223 224 225 0
226 227 228 229 230 0
231 232 233 234 235 0
236 237 238 239 240 0
241 242 243 244 245 0
246 247 248 249 250 0
251 252 253 254 255 0
256 257 258 259 260 0
261 262 263 264 265 0
266 267 268 269 270 0
271 272 273 274 275 0
276 277 278 279 280 0
281 282 283 284 285 0
286 287 288 289 290 0
291 292 293 294 295 0
296 297 298 299 300 0
301 302 303 304 305 0
306 307 308 309 310 0
311 312 313 314 315 0
316 317 318 319 320 0
321 322 323 324 325 0
326 327 328 329 330 0
331 332 333 334 335 0
336 337 338 339 340 0
341 342 343 344 345 0
346 347 348 349 350 0
351 352 353 354 355 0
356 357 358 359 360 0
361 362 363 364 365 0
366 367 368 369 370 0
371 372 373 374 375 0
376 377 378 379 380 0
381 382 383 384 385 0
386 387 388 389 390 0
391 392 393 394 395 0
396 397 398 399 400 0
401 402 403 404 405 0
406 407 408 409 410 0
411 412 413 414 415 0
416 417 418 419 420 0
421 422 423 424 425 0
426 427 428 429 430 0
431 432 433 434 435 0
436 437 438 439 440 0
441 442 443 444 445 0
446 447 448 449 450 0
451 452 453 454 455 0
456 457 458 459 460 0
461 462 463 464 465 0
466 467 468 469 470 0
471 472 473 474 475 0
476 477 478 479 480 0
481 482 483 484 485 0
486 487 488 489 490 0
491 492 493 494 495 0
496 497 498 499 500 0
501 502 503 504 505 0
506 507 508 509 510 0
511 512 513 514 515 0
516 517 518 519 520 0
521 522 523 524 525 0
526 527 528 529 530 0
531 532 533 534 535 0
536 537 538 539 540 0
541 542 543 544 545 0
546 547 548 549 550 0
551 552 553 554 555 0
556 557 558 559 560 0
561 562 563 564 565 0
566 567 568 569 570 0
571 572 573 574 575 0
576 577 578 579 580 0
581 582 583 584 585 0
586 587 588 589 590 0
591 592 593 594 595 0
596 597 598 599 600 0
601 602 603 604 605 0
606 607 608 609 610 0
611 612 613 614 615 0
616 617 618 619 620 0
621 622 623 624 625 0
-1 -121 0
-2 -122 0
-3 -123 0
-4 -124 0
-5 -125 0
-1 -221 0
-2 -222 0
-3 -223 0
-4 -224 0
-5 -225 0
-1 -271 0
-2 -272 0
-3 -273 0
-4 -274 0
-5 -275 0
-1 -396 0
-2 -397 0
-3 -398 0
-4 -399 0
-5 -400 0
-6 -106 0
-7 -107 0
-8 -108 0
-9 -109 0
-10 -110 0
-6 -406 0
-7 -407 0
-8 -408 0
-9 -409 0
-10 -410 0
-11 -116 0
-12 -117 0
-13 -118 0
-14 -119 0
-15 -120 0
-11 -491 0
-12 -492 0
-13 -493 0
-14 -494 0
-15 -495 0
-11 -511 0
-12 -512 0
-13 -513 0
-14 -514 0
-15 -515 0
-16 -131 0
-17 -132 0
-18 -133 0
-19 -134 0
-20 -135 0
-16 -176 0
-17 -177 0
-18 -178 0
-19 -179 0
-20 -180 0
-16 -621 0
-17 -622 0
-18 -623 0
-19 -624 0
-20 -625 0
-26 -106 0
-27 -107 0
-28 -108 0
-29 -109 0
-30 -110 0
-26 -181 0
-27 -182 0
-28 -183 0
-29 -184 0
-30 -185 0
-26 -421 0
-27 -422 0
-28 -423 0
-29 -424 0
-30 -425 0
-26 -541 0
-27 -542 0
-28 -543 0
-29 -544 0
-30 -545 0
-26 -546 0
-27 -547 0
-28 -548 0
-29 -549 0
-30 -550 0
-26 -601 0
-27 -602 0
-28 -603 0
-29 -604 0
-30 -605 0
-31 -101 0
-32 -102 0
-33 -103 0
-34 -104 0
-35 -105 0
-31 -476 0
-32 -477 0
-33 -478 0
-34 -479 0
-35 -480 0
-36 -586 0
-37 -587 0
-38 -588 0
-39 -589 0
-40 -590 0
-41 -606 0
-42 -607 0
-43 -608 0
-44 -609 0
-45 -610 0
-46 -66 0
-47 -67 0
-48 -68 0
-49 -69 0
-50 -70 0
-46 -86 0
-47 -87 0
-48 -88 0
-49 -89 0
-50 -90 0
-46 -146 0
-47 -147 0
-48 -148 0
-49 -149 0
-50 -150 0
-46 -181 0
-47 -182 0
-48 -183 0
-49 -184 0
-50 -185 0
-46 -226 0
-47 -227 0
-48 -228 0
-49 -229 0
-50 -230 0
-46 -261 0
-47 -262 0
-48 -263 0
-49 -264 0
-50 -265 0
-46 -266 0
-47 -267 0
-48 -268 0
-49 -269 0
-50 -270 0
-46 -486 0
-47 -487 0
-48 -488 0
-49 -489 0
-50 -490 0
-51 -321 0
-52 -322 0
-53 -323 0
-54 -324 0
-55 -325 0
-51 -401 0
-52 -402 0
-53 -403 0
-54 -404 0
-55 -405 0
-51 -456 0
-52 -457 0
-53 -458 0
-54 -459 0
-55 -460 0
-56 -196 0
-57 -197 0
-58 -198 0
-59 -199 0
-60 -200 0
-56 -316 0
-57 -317 0
-58 -318 0
-59 -319 0
-60 -320 0
-56 -526 0
-57 -527 0
-58 -528 0
-59 -529 0
-60 -530 0
-61 -251 0
-62 -252 0
-63 -253 0
-64 -254 0
-65 -255 0
-61 -381 0
-62 -382 0
-63 -383 0
-64 -384 0
-65 -385 0
-61 -446 0
-62 -447 0
-63 -448 0
-64 -449 0
-65 -450 0
-61 -551 0
-62 -552 0
-63 -553 0
-64 -554 0
-65 -555 0
-66 -191 0
-67 -192 0
-68 -193 0
-69 -194 0
-70 -195 0
-66 -211 0
-67 -212 0
-68 -213 0
-69 -214 0
-70 -215 0
-66 -226 0
-67 -227 0
-68 -228 0
-69 -229 0
-70 -230 0
-66 -486 0
-67 -487 0
-68 -488 0
-69 -489 0
-70 -490 0
-66 -571 0
-67 -572 0
-68 -573 0
-69 -574 0
-70 -575 0
-71 -141 0
-72 -142 0
-73 -143 0
-74 -144 0
-75 -145 0
-76 -286 0
-77 -287 0
-78 -288 0
-79 -289 0
-80 -290 0
-76 -306 0
-77 -307 0
-78 -308 0
-79 -309 0
-80 -310 0
-81 -91 0
-82 -92 0
-83 -93 0
-84 -94 0
-85 -95 0
-81 -376 0
-82 -377 0
-83 -378 0
-84 -379 0
-85 -380 0
-86 -146 0
-87 -147 0
-88 -148 0
-89 -149 0
-90 -150 0
-86 -181 0
-87 -182 0
-88 -183 0
-89 -184 0
-90 -185 0
-86 -261 0
-87 -262 0
-88 -263 0
-89 -264 0
-90 -265 0
-86 -266 0
-87 -267 0
-88 -268 0
-89 -269 0
-90 -270 0
-86 -421 0
-87 -422 0
-88 -423 0
-89 -424 0
-90 -425 0
-86 -541 0
-87 -542 0
-88 -543 0
-89 -544 0
-90 -545 0
-91 -376 0
-92 -377 0
-93 -378 0
-94 -379 0
-95 -380 0
-91 -396 0
-92 -397 0
-93 -398 0
-94 -399 0
-95 -400 0
-96 -311 0
-97 -312 0
-98 -313 0
-99 -314 0
-100 -315 0
-96 -356 0
-97 -357 0
-98 -358 0
-99 -359 0
-100 -360 0
-101 -236 0
-102 -237 0
-103 -238 0
-104 -239 0
-105 -240 0
-101 -476 0
-102 -477 0
-103 -478 0
-104 -479 0
-105 -480 0
-101 -561 0
-102 -562 0
-103 -563 0
-104 -564 0
-105 -565 0
-106 -181 0
-107 -182 0
-108 -183 0
-109 -184 0
-110 -185 0
-106 -421 0
-107 -422 0
-108 -423 0
-109 -424 0
-110 -425 0
-106 -541 0
-107 -542 0
-108 -543 0
-109 -544 0
-110 -545 0
-116 -491 0
-117 -492 0
-118 -493 0
-119 -494 0
-120 -495 0
-121 -221 0
-122 -222 0
-123 -223 0
-124 -224 0
-125 -225 0
-121 -271 0
-122 -272 0
-123 -273 0
-124 -274 0
-125 -275 0
-121 -396 0
-122 -397 0
-123 -398 0
-124 -399 0
-125 -400 0
-126 -241 0
-127 -242 0
-128 -243 0
-129 -244 0
-130 -245 0
-126 -336 0
-127 -337 0
-128 -338 0
-129 -339 0
-130 -340 0
-131 -176 0
-132 -177 0
-133 -178 0
-134 -179 0
-135 -180 0
-131 -621 0
-132 -622 0
-133 -623 0
-134 -624 0
-135 -625 0
-136 -216 0
-137 -217 0
-138 -218 0
-139 -219 0
-140 -220 0
-136 -276 0
-137 -277 0
-138 -278 0
-139 -279 0
-140 -280 0
-136 -321 0
-137 -322 0
-138 -323 0
-139 -324 0
-140 -325 0
-136 -326 0
-137 -327 0
-138 -328 0
-139 -329 0
-140 -330 0
-136 -581 0
-137 -582 0
-138 -583 0
-139 -584 0
-140 -585 0
-141 -451 0
-142 -452 0
-143 -453 0
-144 -454 0
-145 -455 0
-146 -181 0
-147 -182 0
-148 -183 0
-149 -184 0
-150 -185 0
-146 -261 0
-147 -262 0
-148 -263 0
-149 -264 0
-150 -265 0
-146 -266 0
-147 -267 0
-148 -268 0
-149 -269 0
-150 -270 0
-146 -541 0
-147 -542 0
-148 -543 0
-149 -544 0
-150 -545 0
-151 -326 0
-152 -327 0
-153 -328 0
-154 -329 0
-155 -330 0
-151 -436 0
-152 -437 0
-153 -438 0
-154 -439 0
-155 -440 0
-151 -501 0
-152 -502 0
-153 -503 0
-154 -504 0
-155 -505 0
-151 -531 0
-152 -532 0
-153 -533 0
-154 -534 0
-155 -535 0
-151 -581 0
-152 -582 0
-153 -583 0
-154 -584 0
-155 -585 0
-156 -471 0
-157 -472 0
-158 -473 0
-159 -474 0
-160 -475 0
-156 -516 0
-157 -517 0
-158 -518 0
-159 -519 0
-160 -520 0
-161 -166 0
-162 -167 0
-163 -168 0
-164 -169 0
-165 -170 0
-161 -256 0
-162 -257 0
-163 -258 0
-164 -259 0
-165 -260 0
-166 -606 0
-167 -607 0
-168 -608 0
-169 -609 0
-170 -610 0
-171 -251 0
-172 -252 0
-173 -253 0
-174 -254 0
-175 -255 0
-171 -291 0
-172 -292 0
-173 -293 0
-174 -294 0
-175 -295 0
-171 -381 0
-172 -382 0
-173 -383 0
-174 -384 0
-175 -385 0
-171 -391 0
-172 -392 0
-173 -393 0
-174 -394 0
-175 -395 0
-171 -551 0
-172 -552 0
-173 -553 0
-174 -554 0
-175 -555 0
-176 -431 0
-177 -432 0
-178 -433 0
-179 -434 0
-180 -435 0
-176 -536 0
-177 -537 0
-178 -538 0
-179 -539 0
-180 -540 0
-176 -596 0
-177 -597 0
-178 -598 0
-179 -599 0
-180 -600 0
-176 -621 0
-177 -622 0
-178 -623 0
-179 -624 0
-180 -625 0
-181 -261 0
-182 -262 0
-183 -263 0
-184 -264 0
-185 -265 0
-181 -421 0
-182 -422 0
-183 -423 0
-184 -424 0
-185 -425 0
-181 -541 0
-182 -542 0
-183 -543 0
-184 -544 0
-185 -545 0
-186 -201 0
-187 -202 0
-188 -203 0
-189 -204 0
-190 -205 0
-186 -451 0
-187 -452 0
-188 -453 0
-189 -454 0
-190 -455 0
-191 -501 0
-192 -502 0
-193 -503 0
-194 -504 0
-195 -505 0
-191 -571 0
-192 -572 0
-193 -573 0
-194 -574 0
-195 -575 0
-201 -451 0
-202 -452 0
-203 -453 0
-204 -454 0
-205 -455 0
-206 -371 0
-207 -372 0
-208 -373 0
-209 -374 0
-210 -375 0
-206 -466 0
-207 -467 0
-208 -468 0
-209 -469 0
-210 -470 0
-211 -261 0
-212 -262 0
-213 -263 0
-214 -264 0
-215 -265 0
-211 -266 0
-212 -267 0
-213 -268 0
-214 -269 0
-215 -270 0
-216 -276 0
-217 -277 0
-218 -278 0
-219 -279 0
-220 -280 0
-216 -321 0
-217 -322 0
-218 -323 0
-219 -324 0
-220 -325 0
-216 -326 0
-217 -327 0
-218 -328 0
-219 -329 0
-220 -330 0
-216 -401 0
-217 -402 0
-218 -403 0
-219 -404 0
-220 -405 0
-216 -581 0
-217 -582 0
-218 -583 0
-219 -584 0
-220 -585 0
-221 -271 0
-222 -272 0
-223 -273 0
-224 -274 0
-225 -275 0
-221 -396 0
-222 -397 0
-223 -398 0
-224 -399 0
-225 -400 0
-226 -486 0
-227 -487 0
-228 -488 0
-229 -489 0
-230 -490 0
-226 -571 0
-227 -572 0
-228 -573 0
-229 -574 0
-230 -575 0
-231 -386 0
-232 -387 0
-233 -388 0
-234 -389 0
-235 -390 0
-231 -411 0
-232 -412 0
-233 -413 0
-234 -414 0
-235 -415 0
-236 -476 0
-237 -477 0
-238 -478 0
-239 -479 0
-240 -480 0
-236 -496 0
-237 -497 0
-238 -498 0
-239 -499 0
-240 -500 0
-241 -336 0
-242 -337 0
-243 -338 0
-244 -339 0
-245 -340 0
-246 -341 0
-247 -342 0
-248 -343 0
-249 -344 0
-250 -345 0
-246 -371 0
-247 -372 0
-248 -373 0
-249 -374 0
-250 -375 0
-246 -416 0
-247 -417 0
-248 -418 0
-249 -419 0
-250 -420 0
-246 -426 0
-247 -427 0
-248 -428 0
-249 -429 0
-250 -430 0
-246 -441 0
-247 -442 0
-248 -443 0
-249 -444 0
-250 -445 0
-246 -556 0
-247 -557 0
-248 -558 0
-249 -559 0
-250 -560 0
-251 -291 0
-252 -292 0
-253 -293 0
-254 -294 0
-255 -295 0
-251 -381 0
-252 -382 0
-253 -383 0
-254 -384 0
-255 -385 0
-251 -391 0
-252 -392 0
-253 -393 0
-254 -394 0
-255 -395 0
-251 -551 0
-252 -552 0
-253 -553 0
-254 -554 0
-255 -555 0
-256 -331 0
-257 -332 0
-258 -333 0
-259 -334 0
-260 -335 0
-256 -481 0
-257 -482 0
-258 -483 0
-259 -484 0
-260 -485 0
-261 -266 0
-262 -267 0
-263 -268 0
-264 -269 0
-265 -270 0
-271 -396 0
-272 -397 0
-273 -398 0
-274 -399 0
-275 -400 0
-276 -401 0
-277 -402 0
-278 -403 0
-279 -404 0
-280 -405 0
-276 -511 0
-277 -512 0
-278 -513 0
-279 -514 0
-280 -515 0
-281 -546 0
-282 -547 0
-283 -548 0
-284 -549 0
-285 -550 0
-281 -586 0
-282 -587 0
-283 -588 0
-284 -589 0
-285 -590 0
-281 -601 0
-282 -602 0
-283 -603 0
-284 -604 0
-285 -605 0
-281 -616 0
-282 -617 0
-283 -618 0
-284 -619 0
-285 -620 0
-286 -306 0
-287 -307 0
-288 -308 0
-289 -309 0
-290 -310 0
-286 -441 0
-287 -442 0
-288 -443 0
-289 -444 0
-290 -445 0
-291 -306 0
-292 -307 0
-293 -308 0
-294 -309 0
-295 -310 0
-291 -391 0
-292 -392 0
-293 -393 0
-294 -394 0
-295 -395 0
-291 -551 0
-292 -552 0
-293 -553 0
-294 -554 0
-295 -555 0
-296 -366 0
-297 -367 0
-298 -368 0
-299 -369 0
-300 -370 0
-296 -451 0
-297 -452 0
-298 -453 0
-299 -454 0
-300 -455 0
-301 -366 0
-302 -367 0
-303 -368 0
-304 -369 0
-305 -370 0
-311 -356 0
-312 -357 0
-313 -358 0
-314 -359 0
-315 -360 0
-311 -411 0
-312 -412 0
-313 -413 0
-314 -414 0
-315 -415 0
-316 -351 0
-317 -352 0
-318 -353 0
-319 -354 0
-320 -355 0
-316 -361 0
-317 -362 0
-318 -363 0
-319 -364 0
-320 -365 0
-321 -401 0
-322 -402 0
-323 -403 0
-324 -404 0
-325 -405 0
-321 -456 0
-322 -457 0
-323 -458 0
-324 -459 0
-325 -460 0
-326 -436 0
-327 -437 0
-328 -438 0
-329 -439 0
-330 -440 0
-326 -501 0
-327 -502 0
-328 -503 0
-329 -504 0
-330 -505 0
-326 -581 0
-327 -582 0
-328 -583 0
-329 -584 0
-330 -585 0
-331 -481 0
-332 -482 0
-333 -483 0
-334 -484 0
-335 -485 0
-341 -371 0
-342 -372 0
-343 -373 0
-344 -374 0
-345 -375 0
-341 -416 0
-342 -417 0
-343 -418 0
-344 -419 0
-345 -420 0
-341 -426 0
-342 -427 0
-343 -428 0
-344 -429 0
-345 -430 0
-346 -526 0
-347 -527 0
-348 -528 0
-349 -529 0
-350 -530 0
-346 -576 0
-347 -577 0
-348 -578 0
-349 -579 0
-350 -580 0
-351 -361 0
-352 -362 0
-353 -363 0
-354 -364 0
-355 -365 0
-361 -496 0
-362 -497 0
-363 -498 0
-364 -499 0
-365 -500 0
-366 -451 0
-367 -452 0
-368 -453 0
-369 -454 0
-370 -455 0
-376 -461 0
-377 -462 0
-378 -463 0
-379 -464 0
-380 -465 0
-381 -551 0
-382 -552 0
-383 -553 0
-384 -554 0
-385 -555 0
-416 -426 0
-417 -427 0
-418 -428 0
-419 -429 0
-420 -430 0
-416 -441 0
-417 -442 0
-418 -443 0
-419 -444 0
-420 -445 0
-416 -556 0
-417 -557 0
-418 -558 0
-419 -559 0
-420 -560 0
-421 -541 0
-422 -542 0
-423 -543 0
-424 -544 0
-425 -545 0
-426 -441 0
-427 -442 0
-428 -443 0
-429 -444 0
-430 -445 0
-426 -556 0
-427 -557 0
-428 -558 0
-429 -559 0
-430 -560 0
-431 -506 0
-432 -507 0
-433 -508 0
-434 -509 0
-435 -510 0
-431 -536 0
-432 -537 0
-433 -538 0
-434 -539 0
-435 -540 0
-431 -596 0
-432 -597 0
-433 -598 0
-434 -599 0
-435 -600 0
-431 -611 0
-432 -612 0
-433 -613 0
-434 -614 0
-435 -615 0
-431 -621 0
-432 -622 0
-433 -623 0
-434 -624 0
-435 -625 0
-436 -501 0
-437 -502 0
-438 -503 0
-439 -504 0
-440 -505 0
-436 -531 0
-437 -532 0
-438 -533 0
-439 -534 0
-440 -535 0
-441 -556 0
-442 -557 0
-443 -558 0
-444 -559 0
-445 -560 0
-456 -566 0
-457 -567 0
-458 -568 0
-459 -569 0
-460 -570 0
-471 -516 0
-472 -517 0
-473 -518 0
-474 -519 0
-475 -520 0
-476 -561 0
-477 -562 0
-478 -563 0
-479 -564 0
-480 -565 0
-486 -601 0
-487 -602 0
-488 -603 0
-489 -604 0
-490 -605 0
-486 -616 0
-487 -617 0
-488 -618 0
-489 -619 0
-490 -620 0
-501 -571 0
-502 -572 0
-503 -573 0
-504 -574 0
-505 -575 0
-501 -581 0
-502 -582 0
-503 -583 0
-504 -584 0
-505 -585 0
-506 -536 0
-507 -537 0
-508 -538 0
-509 -539 0
-510 -540 0
-506 -611 0
-507 -612 0
-508 -613 0
-509 -614 0
-510 -615 0
-526 -576 0
-527 -577 0
-528 -578 0
-529 -579 0
-530 -580 0
-531 -591 0
-532 -592 0
-533 -593 0
-534 -594 0
-535 -595 0
-536 -596 0
-537 -597 0
-538 -598 0
-539 -599 0
-540 -600 0
-536 -611 0
-537 -612 0
-538 -613 0
-539 -614 0
-540 -615 0
-536 -621 0
-537 -622 0
-538 -623 0
-539 -624 0
-540 -625 0
-546 -601 0
-547 -602 0
-548 -603 0
-549 -604 0
-550 -605 0
-546 -616 0
-547 -617 0
-548 -618 0
-549 -619 0
-550 -620 0
-596 -621 0
-597 -622 0
-598 -623 0
-599 -624 0
-600 -625 0
-601 -616 0
-602 -617 0
-603 -618 0
-604 -619 0
-605 -620 0
-2 -1 0
-3 -1 0
-3 -2 0
-4 -1 0
-4 -2 0
-4 -3 0
-5 -1 0
-5 -2 0
-5 -3 0
-5 -4 0
-7 -6 0
-8 -6 0
-8 -7 0
-9 -6 0
-9 -7 0
-9 -8 0
-10 -6 0
-10 -7 0
-10 -8 0
-10 -9 0
-12 -11 0
-13 -11 0
-13 -12 0
-14 -11 0
-14 -12 0
-14 -13 0
-15 -11 0
-15 -12 0
-15 -13 0
-15 -14 0
-17 -16 0
-18 -16 0
-18 -17 0
-19 -16 0
-19 -17 0
-19 -18 0
-20 -16 0
-20 -17 0
-20 -18 0
-20 -19 0
-22 -21 0
-23 -21 0
-23 -22 0
-24 -21 0
-24 -22 0
-24 -23 0
-25 -21 0
-25 -22 0
-25 -23 0
-25 -24 0
-27 -26 0
-28 -26 0
-28 -27 0
-29 -26 0
-29 -27 0
-29 -28 0
-30 -26 0
-30 -27 0
-30 -28 0
-30 -29 0
-32 -31 0
-33 -31 0
-33 -32 0
-34 -31 0
-34 -32 0
-34 -33 0
-35 -31 0
-35 -32 0
-35 -33 0
-35 -34 0
-37 -36 0
-38 -36 0
-38 -37 0
-39 -36 0
-39 -37 0
-39 -38 0
-40 -36 0
-40 -37 0
-40 -38 0
-40 -39 0
-42 -41 0
-43 -41 0
-43 -42 0
-44 -41 0
-44 -42 0
-44 -43 0
-45 -41 0
-45 -42 0
-45 -43 0
-45 -44 0
-47 -46 0
-48 -46 0
-48 -47 0
-49 -46 0
-49 -47 0
-49 -48 0
-50 -46 0
-50 -47 0
-50 -48 0
-50 -49 0
-52 -51 0
-53 -51 0
-53 -52 0
-54 -51 0
-54 -52 0
-54 -53 0
-55 -51 0
-55 -52 0
-55 -53 0
-55 -54 0
-57 -56 0
-58 -56 0
-58 -57 0
-59 -56 0
-59 -57 0
-59 -58 0
-60 -56 0
-60 -57 0
-60 -58 0
-60 -59 0
-62 -61 0
-63 -61 0
-63 -62 0
-64 -61 0
-64 -62 0
-64 -63 0
-65 -61 0
-65 -62 0
-65 -63 0
-65 -64 0
-67 -66 0
-68 -66 0
-68 -67 0
-69 -66 0
-69 -67 0
-69 -68 0
-70 -66 0
-70 -67 0
-70 -68 0
-70 -69 0
-72 -71 0
-73 -71 0
-73 -72 0
-74 -71 0
-74 -72 0
-74 -73 0
-75 -71 0
-75 -72 0
-75 -73 0
-75 -74 0
-77 -76 0
-78 -76 0
-78 -77 0
-79 -76 0
-79 -77 0
-79 -78 0
-80 -76 0
-80 -77 0
-80 -78 0
-80 -79 0
-82 -81 0
-83 -81 0
-83 -82 0
-84 -81 0
-84 -82 0
-84 -83 0
-85 -81 0
-85 -82 0
-85 -83 0
-85 -84 0
-87 -86 0
-88 -86 0
-88 -87 0
-89 -86 0
-89 -87 0
-89 -88 0
-90 -86 0
-90 -87 0
-90 -88 0
-90 -89 0
-92 -91 0
-93 -91 0
-93 -92 0
-94 -91 0
-94 -92 0
-94 -93 0
-95 -91 0
-95 -92 0
-95 -93 0
-95 -94 0
-97 -96 0
-98 -96 0
-98 -97 0
-99 -96 0
-99 -97 0
-99 -98 0
-100 -96 0
-100 -97 0
-100 -98 0
-100 -99 0
-102 -101 0
-103 -101 0
-103 -102 0
-104 -101 0
-104 -102 0
-104 -103 0
-105 -101 0
-105 -102 0
-105 -103 0
-105 -104 0
-107 -106 0
-108 -106 0
-108 -107 0
-109 -106 0
-109 -107 0
-109 -108 0
-110 -106 0
-110 -107 0
-110 -108 0
-110 -109 0
-112 -111 0
-113 -111 0
-113 -112 0
-114 -111 0
-114 -112 0
-114 -113 0
-115 -111 0
-115 -112 0
-115 -113 0
-115 -114 0
-117 -116 0
-118 -116 0
-118 -117 0
-119 -116 0
-119 -117 0
-119 -118 0
-120 -116 0
-120 -117 0
-120 -118 0
-120 -119 0
-122 -121 0
-123 -121 0
-123 -122 0
-124 -121 0
-124 -122 0
-124 -123 0
-125 -121 0
-125 -122 0
-125 -123 0
-125 -124 0
-127 -126 0
-128 -126 0
-128 -127 0
-129 -126 0
-129 -127 0
-129 -128 0
-130 -126 0
-130 -127 0
-130 -128 0
-130 -129 0
-132 -131 0
-133 -131 0
-133 -132 0
-134 -131 0
-134 -132 0
-134 -133 0
-135 -131 0
-135 -132 0
-135 -133 0
-135 -134 0
-137 -136 0
-138 -136 0
-138 -137 0
-139 -136 0
-139 -137 0
-139 -138 0
-140 -136 0
-140 -137 0
-140 -138 0
-140 -139 0
-142 -141 0
-143 -141 0
-143 -142 0
-144 -141 0
-144 -142 0
-144 -143 0
-145 -141 0
-145 -142 0
-145 -143 0
-145 -144 0
-147 -146 0
-148 -146 0
-148 -147 0
-149 -146 0
-149 -147 0
-149 -148 0
-150 -146 0
-150 -147 0
-150 -148 0
-150 -149 0
-152 -151 0
-153 -151 0
-153 -152 0
-154 -151 0
-154 -152 0
-154 -153 0
-155 -151 0
-155 -152 0
-155 -153 0
-155 -154 0
-157 -156 0
-158 -156 0
-158 -157 0
-159 -156 0
-159 -157 0
-159 -158 0
-160 -156 0
-160 -157 0
-160 -158 0
-160 -159 0
-162 -161 0
-163 -161 0
-163 -162 0
-164 -161 0
-164 -162 0
-164 -163 0
-165 -161 0
-165 -162 0
-165 -163 0
-165 -164 0
-167 -166 0
-168 -166 0
-168 -167 0
-169 -166 0
-169 -167 0
-169 -168 0
-170 -166 0
-170 -167 0
-170 -168 0
-170 -169 0
-172 -171 0
-173 -171 0
-173 -172 0
-174 -171 0
-174 -172 0
-174 -173 0
-175 -171 0
-175 -172 0
-175 -173 0
-175 -174 0
-177 -176 0
-178 -176 0
-178 -177 0
-179 -176 0
-179 -177 0
-179 -178 0
-180 -176 0
-180 -177 0
-180 -178 0
-180 -179 0
-182 -181 0
-183 -181 0
-183 -182 0
-184 -181 0
-184 -182 0
-184 -183 0
-185 -181 0
-185 -182 0
-185 -183 0
-185 -184 0
-187 -186 0
-188 -186 0
-188 -187 0
-189 -186 0
-189 -187 0
-189 -188 0
-190 -186 0
-190 -187 0
-190 -188 0
-190 -189 0
-192 -191 0
-193 -191 0
-193 -192 0
-194 -191 0
-194 -192 0
-194 -193 0
-195 -191 0
-195 -192 0
-195 -193 0
-195 -194 0
-197 -196 0
-198 -196 0
-198 -197 0
-199 -196 0
-199 -197 0
-199 -198 0
-200 -196 0
-200 -197 0
-200 -198 0
-200 -199 0
-202 -201 0
-203 -201 0
-203 -202 0
-204 -201 0
-204 -202 0
-204 -203 0
-205 -201 0
-205 -202 0
-205 -203 0
-205 -204 0
-207 -206 0
-208 -206 0
-208 -207 0
-209 -206 0
-209 -207 0
-209 -208 0
-210 -206 0
-210 -207 0
-210 -208 0
-210 -209 0
-212 -211 0
-213 -211 0
-213 -212 0
-214 -211 0
-214 -212 0
-214 -213 0
-215 -211 0
-215 -212 0
-215 -213 0
-215 -214 0
-217 -216 0
-218 -216 0
-218 -217 0
-219 -216 0
-219 -217 0
-219 -218 0
-220 -216 0
-220 -217 0
-220 -218 0
-220 -219 0
-222 -221 0
-223 -221 0
-223 -222 0
-224 -221 0
-224 -222 0
-224 -223 0
-225 -221 0
-225 -222 0
-225 -223 0
-225 -224 0
-227 -226 0
-228 -226 0
-228 -227 0
-229 -226 0
-229 -227 0
-229 -228 0
-230 -226 0
-230 -227 0
-230 -228 0
-230 -229 0
-232 -231 0
-233 -231 0
-233 -232 0
-234 -231 0
-234 -232 0
-234 -233 0
-235 -231 0
-235 -232 0
-235 -233 0
-235 -234 0
-237 -236 0
-238 -236 0
-238 -237 0
-239 -236 0
-239 -237 0
-239 -238 0
-240 -236 0
-240 -237 0
-240 -238 0
-240 -239 0
-242 -241 0
-243 -241 0
-243 -242 0
-244 -241 0
-244 -242 0
-244 -243 0
-245 -241 0
-245 -242 0
-245 -243 0
-245 -244 0
-247 -246 0
-248 -246 0
-248 -247 0
-249 -246 0
-249 -247 0
-249 -248 0
-250 -246 0
-250 -247 0
-250 -248 0
-250 -249 0
-252 -251 0
-253 -251 0
-253 -252 0
-254 -251 0
-254 -252 0
-254 -253 0
-255 -251 0
-255 -252 0
-255 -253 0
-255 -254 0
-257 -256 0
-258 -256 0
-258 -257 0
-259 -256 0
-259 -257 0
-259 -258 0
-260 -256 0
-260 -257 0
-260 -258 0
-260 -259 0
-262 -261 0
-263 -261 0
-263 -262 0
-264 -261 0
-264 -262 0
-264 -263 0
-265 -261 0
-265 -262 0
-265 -263 0
-265 -264 0
-267 -266 0
-268 -266 0
-268 -267 0
-269 -266 0
-269 -267 0
-269 -268 0
-270 -266 0
-270 -267 0
-270 -268 0
-270 -269 0
-272 -271 0
-273 -271 0
-273 -272 0
-274 -271 0
-274 -272 0
-274 -273 0
-275 -271 0
-275 -272 0
-275 -273 0
-275 -274 0
-277 -276 0
-278 -276 0
-278 -277 0
-279 -276 0
-279 -277 0
-279 -278 0
-280 -276 0
-280 -277 0
-280 -278 0
-280 -279 0
-282 -281 0
-283 -281 0
-283 -282 0
-284 -281 0
-284 -282 0
-284 -283 0
-285 -281 0
-285 -282 0
-285 -283 0
-285 -284 0
-287 -286 0
-288 -286 0
-288 -287 0
-289 -286 0
-289 -287 0
-289 -288 0
-290 -286 0
-290 -287 0
-290 -288 0
-290 -289 0
-292 -291 0
-293 -291 0
-293 -292 0
-294 -291 0
-294 -292 0
-294 -293 0
-295 -291 0
-295 -292 0
-295 -293 0
-295 -294 0
-297 -296 0
-298 -296 0
-298 -297 0
-299 -296 0
-299 -297 0
-299 -298 0
-300 -296 0
-300 -297 0
-300 -298 0
-300 -299 0
-302 -301 0
-303 -301 0
-303 -302 0
-304 -301 0
-304 -302 0
-304 -303 0
-305 -301 0
-305 -302 0
-305 -303 0
-305 -304 0
-307 -306 0
-308 -306 0
-308 -307 0
-309 -306 0
-309 -307 0
-309 -308 0
-310 -306 0
-310 -307 0
-310 -308 0
-310 -309 0
-312 -311 0
-313 -311 0
-313 -312 0
-314 -311 0
-314 -312 0
-314 -313 0
-315 -311 0
-315 -312 0
-315 -313 0
-315 -314 0
-317 -316 0
-318 -316 0
-318 -317 0
-319 -316 0
-319 -317 0
-319 -318 0
-320 -316 0
-320 -317 0
-320 -318 0
-320 -319 0
-322 -321 0
-323 -321 0
-323 -322 0
-324 -321 0
-324 -322 0
-324 -323 0
-325 -321 0
-325 -322 0
-325 -323 0
-325 -324 0
-327 -326 0
-328 -326 0
-328 -327 0
-329 -326 0
-329 -327 0
-329 -328 0
-330 -326 0
-330 -327 0
-330 -328 0
-330 -329 0
-332 -331 0
-333 -331 0
-333 -332 0
-334 -331 0
-334 -332 0
-334 -333 0
-335 -331 0
-335 -332 0
-335 -333 0
-335 -334 0
-337 -336 0
-338 -336 0
-338 -337 0
-339 -336 0
-339 -337 0
-339 -338 0
-340 -336 0
-340 -337 0
-340 -338 0
-340 -339 0
-342 -341 0
-343 -341 0
-343 -342 0
-344 -341 0
-344 -342 0
-344 -343 0
-345 -341 0
-345 -342 0
-345 -343 0
-345 -344 0
-347 -346 0
-348 -346 0
-348 -347 0
-349 -346 0
-349 -347 0
-349 -348 0
-350 -346 0
-350 -347 0
-350 -348 0
-350 -349 0
-352 -351 0
-353 -351 0
-353 -352 0
-354 -351 0
-354 -352 0
-354 -353 0
-355 -351 0
-355 -352 0
-355 -353 0
-355 -354 0
-357 -356 0
-358 -356 0
-358 -357 0
-359 -356 0
-359 -357 0
-359 -358 0
-360 -356 0
-360 -357 0
-360 -358 0
-360 -359 0
-362 -361 0
-363 -361 0
-363 -362 0
-364 -361 0
-364 -362 0
-364 -363 0
-365 -361 0
-365 -362 0
-365 -363 0
-365 -364 0
-367 -366 0
-368 -366 0
-368 -367 0
-369 -366 0
-369 -367 0
-369 -368 0
-370 -366 0
-370 -367 0
-370 -368 0
-370 -369 0
-372 -371 0
-373 -371 0
-373 -372 0
-374 -371 0
-374 -372 0
-374 -373 0
-375 -371 0
-375 -372 0
-375 -373 0
-375 -374 0
-377 -376 0
-378 -376 0
-378 -377 0
-379 -376 0
-379 -377 0
-379 -378 0
-380 -376 0
-380 -377 0
-380 -378 0
-380 -379 0
-382 -381 0
-383 -381 0
-383 -382 0
-384 -381 0
-384 -382 0
-384 -383 0
-385 -381 0
-385 -382 0
-385 -383 0
-385 -384 0
-387 -386 0
-388 -386 0
-388 -387 0
-389 -386 0
-389 -387 0
-389 -388 0
-390 -386 0
-390 -387 0
-390 -388 0
-390 -389 0
-392 -391 0
-393 -391 0
-393 -392 0
-394 -391 0
-394 -392 0
-394 -393 0
-395 -391 0
-395 -392 0
-395 -393 0
-395 -394 0
-397 -396 0
-398 -396 0
-398 -397 0
-399 -396 0
-399 -397 0
-399 -398 0
-400 -396 0
-400 -397 0
-400 -398 0
-400 -399 0
-402 -401 0
-403 -401 0
-403 -402 0
-404 -401 0
-404 -402 0
-404 -403 0
-405 -401 0
-405 -402 0
-405 -403 0
-405 -404 0
-407 -406 0
-408 -406 0
-408 -407 0
-409 -406 0
-409 -407 0
-409 -408 0
-410 -406 0
-410 -407 0
-410 -408 0
-410 -409 0
-412 -411 0
-413 -411 0
-413 -412 0
-414 -411 0
-414 -412 0
-414 -413 0
-415 -411 0
-415 -412 0
-415 -413 0
-415 -414 0
-417 -416 0
-418 -416 0
-418 -417 0
-419 -416 0
-419 -417 0
-419 -418 0
-420 -416 0
-420 -417 0
-420 -418 0
-420 -419 0
-422 -421 0
-423 -421 0
-423 -422 0
-424 -421 0
-424 -422 0
-424 -423 0
-425 -421 0
-425 -422 0
-425 -423 0
-425 -424 0
-427 -426 0
-428 -426 0
-428 -427 0
-429 -426 0
-429 -427 0
-429 -428 0
-430 -426 0
-430 -427 0
-430 -428 0
-430 -429 0
-432 -431 0
-433 -431 0
-433 -432 0
-434 -431 0
-434 -432 0
-434 -433 0
-435 -431 0
-435 -432 0
-435 -433 0
-435 -434 0
-437 -436 0
-438 -436 0
-438 -437 0
-439 -436 0
-439 -437 0
-439 -438 0
-440 -436 0
-440 -437 0
-440 -438 0
-440 -439 0
-442 -441 0
-443 -441 0
-443 -442 0
-444 -441 0
-444 -442 0
-444 -443 0
-445 -441 0
-445 -442 0
-445 -443 0
-445 -444 0
-447 -446 0
-448 -446 0
-448 -447 0
-449 -446 0
-449 -447 0
-449 -448 0
-450 -446 0
-450 -447 0
-450 -448 0
-450 -449 0
-452 -451 0
-453 -451 0
-453 -452 0
-454 -451 0
-454 -452 0
-454 -453 0
-455 -451 0
-455 -452 0
-455 -453 0
-455 -454 0
-457 -456 0
-458 -456 0
-458 -457 0
-459 -456 0
-459 -457 0
-459 -458 0
-460 -456 0
-460 -457 0
-460 -458 0
-460 -459 0
-462 -461 0
-463 -461 0
-463 -462 0
-464 -461 0
-464 -462 0
-464 -463 0
-465 -461 0
-465 -462 0
-465 -463 0
-465 -464 0
-467 -466 0
-468 -466 0
-468 -467 0
-469 -466 0
-469 -467 0
-469 -468 0
-470 -466 0
-470 -467 0
-470 -468 0
-470 -469 0
-472 -471 0
-473 -471 0
-473 -472 0
-474 -471 0
-474 -472 0
-474 -473 0
-475 -471 0
-475 -472 0
-475 -473 0
-475 -474 0
-477 -476 0
-478 -476 0
-478 -477 0
-479 -476 0
-479 -477 0
-479 -478 0
-480 -476 0
-480 -477 0
-480 -478 0
-480 -479 0
-482 -481 0
-483 -481 0
-483 -482 0
-484 -481 0
-484 -482 0
-484 -483 0
-485 -481 0
-485 -482 0
-485 -483 0
-485 -484 0
-487 -486 0
-488 -486 0
-488 -487 0
-489 -486 0
-489 -487 0
-489 -488 0
-490 -486 0
-490 -487 0
-490 -488 0
-490 -489 0
-492 -491 0
-493 -491 0
-493 -492 0
-494 -491 0
-494 -492 0
-494 -493 0
-495 -491 0
-495 -492 0
-495 -493 0
-495 -494 0
-497 -496 0
-498 -496 0
-498 -497 0
-499 -496 0
-499 -497 0
-499 -498 0
-500 -496 0
-500 -497 0
-500 -498 0
-500 -499 0
-502 -501 0
-503 -501 0
-503 -502 0
-504 -501 0
-504 -502 0
-504 -503 0
-505 -501 0
-505 -502 0
-505 -503 0
-505 -504 0
-507 -506 0
-508 -506 0
-508 -507 0
-509 -506 0
-509 -507 0
-509 -508 0
-510 -506 0
-510 -507 0
-510 -508 0
-510 -509 0
-512 -511 0
-513 -511 0
-513 -512 0
-514 -511 0
-514 -512 0
-514 -513 0
-515 -511 0
-515 -512 0
-515 -513 0
-515 -514 0
-517 -516 0
-518 -516 0
-518 -517 0
-519 -516 0
-519 -517 0
-519 -518 0
-520 -516 0
-520 -517 0
-520 -518 0
-520 -519 0
-522 -521 0
-523 -521 0
-523 -522 0
-524 -521 0
-524 -522 0
-524 -523 0
-525 -521 0
-525 -522 0
-525 -523 0
-525 -524 0
-527 -526 0
-528 -526 0
-528 -527 0
-529 -526 0
-529 -527 0
-529 -528 0
-530 -526 0
-530 -527 0
-530 -528 0
-530 -529 0
-532 -531 0
-533 -531 0
-533 -532 0
-534 -531 0
-534 -532 0
-534 -533 0
-535 -531 0
-535 -532 0
-535 -533 0
-535 -534 0
-537 -536 0
-538 -536 0
-538 -537 0
-539 -536 0
-539 -537 0
-539 -538 0
-540 -536 0
-540 -537 0
-540 -538 0
-540 -539 0
-542 -541 0
-543 -541 0
-543 -542 0
-544 -541 0
-544 -542 0
-544 -543 0
-545 -541 0
-545 -542 0
-545 -543 0
-545 -544 0
-547 -546 0
-548 -546 0
-548 -547 0
-549 -546 0
-549 -547 0
-549 -548 0
-550 -546 0
-550 -547 0
-550 -548 0
-550 -549 0
-552 -551 0
-553 -551 0
-553 -552 0
-554 -551 0
-554 -552 0
-554 -553 0
-555 -551 0
-555 -552 0
-555 -553 0
-555 -554 0
-557 -556 0
-558 -556 0
-558 -557 0
-559 -556 0
-559 -557 0
-559 -558 0
-560 -556 0
-560 -557 0
-560 -558 0
-560 -559 0
-562 -561 0
-563 -561 0
-563 -562 0
-564 -561 0
-564 -562 0
-564 -563 0
-565 -561 0
-565 -562 0
-565 -563 0
-565 -564 0
-567 -566 0
-568 -566 0
-568 -567 0
-569 -566 0
-569 -567 0
-569 -568 0
-570 -566 0
-570 -567 0
-570 -568 0
-570 -569 0
-572 -571 0
-573 -571 0
-573 -572 0
-574 -571 0
-574 -572 0
-574 -573 0
-575 -571 0
-575 -572 0
-575 -573 0
-575 -574 0
-577 -576 0
-578 -576 0
-578 -577 0
-579 -576 0
-579 -577 0
-579 -578 0
-580 -576 0
-580 -577 0
-580 -578 0
-580 -579 0
-582 -581 0
-583 -581 0
-583 -582 0
-584 -581 0
-584 -582 0
-584 -583 0
-585 -581 0
-585 -582 0
-585 -583 0
-585 -584 0
-587 -586 0
-588 -586 0
-588 -587 0
-589 -586 0
-589 -587 0
-589 -588 0
-590 -586 0
-590 -587 0
-590 -588 0
-590 -589 0
-592 -591 0
-593 -591 0
-593 -592 0
-594 -591 0
-594 -592 0
-594 -593 0
-595 -591 0
-595 -592 0
-595 -593 0
-595 -594 0
-597 -596 0
-598 -596 0
-598 -597 0
-599 -596 0
-599 -597 0
-599 -598 0
-600 -596 0
-600 -597 0
-600 -598 0
-600 -599 0
-602 -601 0
-603 -601 0
-603 -602 0
-604 -601 0
-604 -602 0
-604 -603 0
-605 -601 0
-605 -602 0
-605 -603 0
-605 -604 0
-607 -606 0
-608 -606 0
-608 -607 0
-609 -606 0
-609 -607 0
-609 -608 0
-610 -606 0
-610 -607 0
-610 -608 0
-610 -609 0
-612 -611 0
-613 -611 0
-613 -612 0
-614 -611 0
-614 -612 0
-614 -613 0
-615 -611 0
-615 -612 0
-615 -613 0
-615 -614 0
-617 -616 0
-618 -616 0
-618 -617 0
-619 -616 0
-619 -617 0
-619 -618 0
-620 -616 0
-620 -617 0
-620 -618 0
-620 -619 0
-622 -621 0
-623 -621 0
-623 -622 0
-624 -621 0
-624 -622 0
-624 -623 0
-625 -621 0
-625 -622 0
-625 -623 0
-625 -624 0
